
Gurobi 8.1.1 (linux64, Python) logging started Wed Jun 12 22:56:44 2019

Academic license - for non-commercial use only
Changed value of parameter TimeLimit to 60.0
   Prev: 1e+100  Min: 0.0  Max: 1e+100  Default: 1e+100

Gurobi 8.1.1 (linux64, Python) logging started Wed Jun 12 22:56:58 2019

Academic license - for non-commercial use only
Changed value of parameter TimeLimit to 60.0
   Prev: 1e+100  Min: 0.0  Max: 1e+100  Default: 1e+100
Optimize a model with 78 rows, 840 columns and 820 nonzeros
Variable types: 0 continuous, 840 integer (840 binary)
Coefficient statistics:
  Matrix range     [1e+00, 1e+02]
  Objective range  [1e+00, 1e+00]
  Bounds range     [1e+00, 1e+00]
  RHS range        [1e+00, 1e+00]
Found heuristic solution: objective 10.0000000
Presolve removed 36 rows and 602 columns
Presolve time: 0.05s
Presolved: 42 rows, 238 columns, 491 nonzeros
Variable types: 0 continuous, 238 integer (238 binary)

Root relaxation: objective 2.000000e+00, 63 iterations, 0.02 seconds

    Nodes    |    Current Node    |     Objective Bounds      |     Work
 Expl Unexpl |  Obj  Depth IntInf | Incumbent    BestBd   Gap | It/Node Time

     0     0    2.00000    0   15   10.00000    2.00000  80.0%     -    0s
H    0     0                       3.0000000    2.00000  33.3%     -    0s
     0     0    2.00000    0   10    3.00000    2.00000  33.3%     -    0s
     0     0    2.00000    0    7    3.00000    2.00000  33.3%     -    0s
     0     0    2.00000    0    9    3.00000    2.00000  33.3%     -    0s
     0     0    2.00000    0    9    3.00000    2.00000  33.3%     -    0s
     0     2    2.00000    0    9    3.00000    2.00000  33.3%     -    0s

Cutting planes:
  Gomory: 3
  Cover: 5
  MIR: 2
  StrongCG: 1

Explored 19 nodes (544 simplex iterations) in 0.18 seconds
Thread count was 12 (of 12 available processors)

Solution count 2: 3 10 

Optimal solution found (tolerance 1.00e-04)
Best objective 3.000000000000e+00, best bound 3.000000000000e+00, gap 0.0000%

Gurobi 8.1.1 (linux64, Python) logging started Wed Jun 12 22:57:18 2019

Academic license - for non-commercial use only
Changed value of parameter TimeLimit to 60.0
   Prev: 1e+100  Min: 0.0  Max: 1e+100  Default: 1e+100
Optimize a model with 78 rows, 840 columns and 820 nonzeros
Variable types: 0 continuous, 840 integer (840 binary)
Coefficient statistics:
  Matrix range     [1e+00, 1e+02]
  Objective range  [1e+00, 1e+00]
  Bounds range     [1e+00, 1e+00]
  RHS range        [1e+00, 1e+00]
Found heuristic solution: objective 10.0000000
Presolve removed 36 rows and 602 columns
Presolve time: 0.00s
Presolved: 42 rows, 238 columns, 491 nonzeros
Variable types: 0 continuous, 238 integer (238 binary)

Root relaxation: objective 2.000000e+00, 63 iterations, 0.00 seconds

    Nodes    |    Current Node    |     Objective Bounds      |     Work
 Expl Unexpl |  Obj  Depth IntInf | Incumbent    BestBd   Gap | It/Node Time

     0     0    2.00000    0   15   10.00000    2.00000  80.0%     -    0s
H    0     0                       3.0000000    2.00000  33.3%     -    0s
     0     0    2.00000    0   10    3.00000    2.00000  33.3%     -    0s
     0     0    2.00000    0    7    3.00000    2.00000  33.3%     -    0s
     0     0    2.00000    0    9    3.00000    2.00000  33.3%     -    0s
     0     0    2.00000    0    9    3.00000    2.00000  33.3%     -    0s
     0     2    2.00000    0    9    3.00000    2.00000  33.3%     -    0s

Cutting planes:
  Gomory: 3
  Cover: 5
  MIR: 2
  StrongCG: 1

Explored 19 nodes (544 simplex iterations) in 0.02 seconds
Thread count was 12 (of 12 available processors)

Solution count 2: 3 10 

Optimal solution found (tolerance 1.00e-04)
Best objective 3.000000000000e+00, best bound 3.000000000000e+00, gap 0.0000%

Gurobi 8.1.1 (linux64, Python) logging started Wed Jun 12 23:01:19 2019

Academic license - for non-commercial use only
Changed value of parameter TimeLimit to 60.0
   Prev: 1e+100  Min: 0.0  Max: 1e+100  Default: 1e+100
Optimize a model with 78 rows, 840 columns and 815 nonzeros
Variable types: 0 continuous, 840 integer (840 binary)
Coefficient statistics:
  Matrix range     [1e+00, 1e+01]
  Objective range  [1e+00, 1e+00]
  Bounds range     [1e+00, 1e+00]
  RHS range        [1e+00, 1e+00]
Found heuristic solution: objective 9.0000000
Presolve removed 39 rows and 687 columns
Presolve time: 0.00s
Presolved: 39 rows, 153 columns, 321 nonzeros
Variable types: 0 continuous, 153 integer (153 binary)

Root relaxation: objective 5.196742e+00, 48 iterations, 0.00 seconds

    Nodes    |    Current Node    |     Objective Bounds      |     Work
 Expl Unexpl |  Obj  Depth IntInf | Incumbent    BestBd   Gap | It/Node Time

     0     0    5.19674    0   11    9.00000    5.19674  42.3%     -    0s
H    0     0                       6.0000000    5.19674  13.4%     -    0s

Explored 1 nodes (59 simplex iterations) in 0.00 seconds
Thread count was 12 (of 12 available processors)

Solution count 2: 6 9 

Optimal solution found (tolerance 1.00e-04)
Best objective 6.000000000000e+00, best bound 6.000000000000e+00, gap 0.0000%
